NAME : amz1401.106007_106007.tour
COMMENT : Cost = 106007_106007
COMMENT : Found by LKH-AMZ [Keld Helsgaun] Sun May 11 14:52:17 2025
COMMENT : TW viol.: 0 #: 0
TYPE : TOUR
DIMENSION : 132
TOUR_SECTION
25
7
37
73
63
1
59
94
105
106
60
90
17
3
76
65
21
104
54
107
74
85
38
40
130
99
127
23
4
55
48
42
47
81
39
103
89
88
20
83
84
32
13
27
112
117
115
101
97
5
71
9
10
122
66
98
22
62
124
100
51
87
2
132
35
24
64
15
113
75
92
72
29
82
31
129
102
16
19
126
8
53
95
109
36
12
58
121
43
119
108
26
93
6
114
116
52
68
18
45
111
110
57
91
131
70
34
28
44
118
49
120
96
77
46
50
128
30
67
14
33
61
123
69
79
41
86
80
125
11
56
78
-1
EOF
